Route #1: 0 14 91 38 1 32 46 24 103 6 0
Route #2: 0 69 71 2 65 28 39 50 0
Route #3: 0 49 8 100 19 58 12 41 96 52 0
Route #4: 0 62 63 86 47 7 107 82 13 0
Route #5: 0 90 16 29 70 81 37 35 0
Route #6: 0 40 48 73 94 44 57 23 78 0
Route #7: 0 3 108 45 67 42 85 15 87 0
Route #8: 0 109 25 84 51 89 105 79 5 0
Route #9: 0 34 106 92 74 97 66 53 53 26 77 0
Route #10: 0 30 43 93 61 64 36 59 27 31 0
Route #11: 0 68 54 17 95 88 75 21 72 10 0
Route #12: 0 80 104 60 22 83 76 55 33 56 0
Route #13: 0 99 102 9 101 4 18 11 98 20 0
Cost 20575:
